language ESSENCE' 1.0
$ minion Nodes: 1
$ minion TotalTime: 0.000472
$ Savile Row TotalTime: 0.196
letting pain_tuple4_tuple2 be [3, 3;int(1,2)]
letting pain_tuple1 be [2, 2;int(1,2)]
letting pain_tuple2 be [[[4, 8;int(1,2)], 
[1, 2;int(1,2)], 
[6, 7;int(1,2)];int(1..3)], 
[[4, 8;int(1,2)], 
[1, 2;int(1,2)], 
[6, 7;int(1,2)];int(1..3)];int(1,2)]
letting pain_tuple4_tuple1 be [7, 7;int(1,2)]
letting pain_tuple3_tuple1 be [5, 5;int(1,2)]
